nNurses = 181;
nHours = 29;
minHours = 5;
maxHours = 18;
maxConsec = 10;
maxPresence = 27;
demand = [32, 30, 35, 35, 35, 39, 34, 36, 39, 36, 31, 30, 27, 29, 24, 27, 29, 24, 28, 24, 22, 19, 15, 11, 16, 17, 13, 8, 8];
